Examples/LP1.lp
MINIMIZE
    obj: 7 x1 + 9 x2 + 8 x3 + 5 x4 + 4 x5
SUBJECT TO
    9 x1 + 4 x2 + 6 x3 + 6 x4 + 5 x5 = 42
    4 x1 + 8 x2 + 3 x3 + 4 x4 +   x5 = 62
    8 x1 + 5 x2 + 5 x3 + 4 x4 + 7 x5 = 46
END
