Examples/LP1.mps
NAME          LP1   
ROWS
 N  OBJROW
 E  cons0
 E  cons1
 E  cons2
COLUMNS
    x1        OBJROW    7.             cons0     9.          
    x1        cons1     4.             cons2     8.          
    x2        OBJROW    9.             cons0     4.          
    x2        cons1     8.             cons2     5.          
    x3        OBJROW    8.             cons0     6.          
    x3        cons1     3.             cons2     5.          
    x4        OBJROW    5.             cons0     6.          
    x4        cons1     4.             cons2     4.          
    x5        OBJROW    4.             cons0     5.          
    x5        cons1     1.             cons2     7.          
RHS
    RHS       cons0     42.            cons1     62.         
    RHS       cons2     46.         
ENDATA
